NAME : X-n856-50-k48
COMMENT : "Generated by Queiroga, Frota, Sadykov, Subramanian, Uchoa and Vidal (2019)" 
TYPE : CVRP
DIMENSION : 856
EDGE_WEIGHT_TYPE : EUC_2D
CAPACITY : 9
NODE_COORD_SECTION
1 -1 500 500
2 0 440 732
3 0 221 348
4 0 117 545
5 0 493 645
6 0 135 12
7 0 775 997
8 0 745 444
9 0 950 311
10 0 530 150
11 0 900 508
12 0 48 519
13 0 269 217
14 0 722 349
15 0 480 733
16 0 977 422
17 0 999 220
18 0 636 332
19 0 851 162
20 0 559 567
21 0 389 69
22 0 529 835
23 0 303 427
24 0 400 638
25 0 894 904
26 0 482 109
27 0 579 800
28 0 184 82
29 0 669 753
30 0 906 424
31 0 374 692
32 0 174 613
33 0 75 37
34 0 38 563
35 0 838 157
36 0 710 709
37 0 176 67
38 0 449 326
39 0 71 389
40 0 710 115
41 0 237 547
42 0 530 27
43 0 631 223
44 0 171 342
45 0 226 65
46 0 6 998
47 0 24 635
48 0 668 165
49 0 318 608
50 0 429 82
51 0 212 237
52 0 853 126
53 0 387 47
54 0 677 144
55 0 111 790
56 0 957 32
57 0 511 647
58 0 457 561
59 0 86 687
60 0 290 456
61 0 473 563
62 0 807 725
63 0 461 468
64 0 739 235
65 0 257 340
66 0 588 545
67 0 6 311
68 0 268 976
69 0 552 414
70 0 994 946
71 0 452 534
72 0 422 545
73 0 248 611
74 0 43 366
75 0 977 96
76 0 822 580
77 0 940 650
78 0 86 263
79 0 715 99
80 0 668 981
81 0 424 638
82 0 297 607
83 0 251 282
84 0 237 413
85 0 202 573
86 0 181 385
87 0 126 528
88 0 386 811
89 0 978 846
90 0 70 99
91 0 333 357
92 0 49 870
93 0 157 734
94 0 627 268
95 0 818 433
96 0 738 555
97 0 350 909
98 0 337 926
99 0 978 59
100 0 42 595
101 0 870 933
102 0 19 120
103 0 165 679
104 0 131 984
105 0 232 755
106 0 319 417
107 0 187 376
108 0 251 482
109 0 657 219
110 0 209 397
111 0 800 377
112 0 228 116
113 0 566 559
114 0 490 156
115 0 216 547
116 0 964 677
117 0 85 897
118 0 292 807
119 0 600 893
120 0 938 222
121 0 543 747
122 0 572 976
123 0 569 59
124 0 712 574
125 0 971 515
126 0 616 306
127 0 695 837
128 0 421 821
129 0 604 995
130 0 537 957
131 0 1000 653
132 0 282 817
133 0 380 874
134 0 778 101
135 0 462 74
136 0 87 682
137 0 441 228
138 0 608 430
139 0 511 313
140 0 710 300
141 0 630 24
142 0 626 650
143 0 531 719
144 0 598 824
145 0 995 622
146 0 258 981
147 0 358 281
148 0 279 169
149 0 286 268
150 0 259 659
151 0 782 132
152 0 862 518
153 0 457 603
154 0 210 438
155 0 44 44
156 0 527 818
157 0 164 156
158 0 23 86
159 0 342 930
160 0 39 282
161 0 269 848
162 0 436 886
163 0 323 340
164 0 237 891
165 0 333 488
166 0 517 137
167 0 591 972
168 0 541 888
169 0 122 280
170 0 159 655
171 0 200 158
172 0 446 283
173 0 107 315
174 0 588 270
175 0 158 374
176 0 26 353
177 0 959 76
178 0 852 328
179 0 927 736
180 0 437 138
181 0 53 938
182 0 333 192
183 0 922 499
184 0 407 948
185 0 970 664
186 0 237 738
187 0 8 561
188 0 747 852
189 0 989 908
190 0 100 860
191 0 10 960
192 0 842 190
193 0 595 716
194 0 286 965
195 0 199 373
196 0 159 67
197 0 979 25
198 0 488 479
199 0 804 620
200 0 742 853
201 0 528 160
202 0 223 342
203 0 503 159
204 0 711 681
205 0 339 340
206 0 342 509
207 0 931 593
208 0 766 953
209 0 710 172
210 0 521 451
211 0 172 159
212 0 685 836
213 0 639 155
214 0 763 656
215 0 269 241
216 0 825 761
217 0 330 177
218 0 901 124
219 0 713 860
220 0 619 926
221 0 692 19
222 0 96 876
223 0 949 178
224 0 79 795
225 0 833 852
226 0 336 444
227 0 877 0
228 0 296 597
229 0 566 735
230 0 940 377
231 0 349 269
232 0 939 827
233 0 908 120
234 0 50 741
235 0 670 569
236 0 753 744
237 0 577 351
238 0 141 616
239 0 97 625
240 0 64 875
241 0 496 160
242 0 515 598
243 0 344 803
244 0 274 510
245 0 291 170
246 0 800 300
247 0 74 609
248 0 365 207
249 0 791 396
250 0 453 848
251 0 405 191
252 0 395 290
253 0 525 743
254 0 260 385
255 0 408 837
256 0 1 346
257 0 231 504
258 0 837 572
259 0 606 473
260 0 900 729
261 0 346 868
262 0 123 80
263 0 477 169
264 0 383 59
265 0 510 410
266 0 890 101
267 0 952 635
268 0 825 722
269 0 68 598
270 0 234 841
271 0 911 720
272 0 172 367
273 0 569 289
274 0 84 19
275 0 694 916
276 0 454 412
277 0 261 233
278 0 693 375
279 0 588 854
280 0 276 538
281 0 599 569
282 0 142 158
283 0 338 805
284 0 324 194
285 0 739 325
286 0 845 639
287 0 638 182
288 0 858 93
289 0 40 923
290 0 37 599
291 0 638 39
292 0 218 714
293 0 568 674
294 0 288 840
295 0 439 570
296 0 325 801
297 0 587 278
298 0 992 674
299 0 597 608
300 0 174 865
301 0 65 330
302 0 872 434
303 0 620 129
304 0 339 681
305 0 178 811
306 0 478 966
307 0 469 749
308 0 475 791
309 0 799 594
310 0 692 130
311 0 59 223
312 0 811 2
313 0 5 946
314 0 219 305
315 0 759 951
316 0 656 889
317 0 582 18
318 0 97 885
319 0 888 467
320 0 899 286
321 0 512 358
322 0 188 776
323 0 220 951
324 0 503 801
325 0 483 402
326 0 685 904
327 0 483 722
328 0 13 301
329 0 387 976
330 0 607 709
331 0 857 739
332 0 51 422
333 0 818 797
334 0 302 646
335 0 474 101
336 0 817 66
337 0 573 973
338 0 948 686
339 0 922 552
340 0 586 899
341 0 153 503
342 0 47 817
343 0 740 970
344 0 216 852
345 0 261 776
346 0 935 540
347 0 920 879
348 0 642 623
349 0 305 71
350 0 268 373
351 0 409 940
352 0 374 176
353 0 894 60
354 0 539 352
355 0 605 457
356 0 4 240
357 0 340 303
358 0 563 524
359 0 861 875
360 0 700 810
361 0 160 753
362 0 985 455
363 0 981 276
364 0 708 646
365 0 575 249
366 0 777 725
367 0 724 888
368 0 853 773
369 0 4 27
370 0 743 430
371 0 301 574
372 0 38 983
373 0 575 209
374 0 10 683
375 0 878 342
376 0 745 333
377 0 616 311
378 0 537 110
379 0 70 839
380 0 531 647
381 0 157 736
382 0 609 356
383 0 450 852
384 0 534 11
385 0 436 279
386 0 340 578
387 0 41 809
388 0 971 282
389 0 389 628
390 0 171 951
391 0 821 278
392 0 633 578
393 0 158 858
394 0 374 163
395 0 219 471
396 0 392 784
397 0 586 937
398 0 546 923
399 0 619 737
400 0 700 50
401 0 722 223
402 0 112 450
403 0 857 66
404 0 81 295
405 0 314 964
406 0 829 981
407 0 723 590
408 0 645 700
409 0 318 800
410 0 277 268
411 0 459 81
412 0 573 211
413 0 391 259
414 0 368 81
415 0 262 451
416 0 629 44
417 0 390 264
418 0 842 703
419 0 780 254
420 0 653 177
421 0 882 625
422 0 763 432
423 0 615 183
424 0 62 855
425 0 629 543
426 0 27 83
427 0 822 574
428 0 355 86
429 0 102 110
430 1 859 489
431 1 410 900
432 1 519 683
433 1 111 12
434 1 957 366
435 1 848 474
436 1 265 184
437 1 985 701
438 1 862 488
439 1 215 888
440 1 945 515
441 1 76 204
442 1 553 988
443 1 22 32
444 1 817 463
445 1 938 553
446 1 441 911
447 1 944 473
448 1 120 85
449 1 139 101
450 1 551 214
451 1 422 750
452 1 373 976
453 1 196 122
454 1 312 75
455 1 870 353
456 1 25 46
457 1 470 958
458 1 184 140
459 1 890 462
460 1 841 551
461 1 843 479
462 1 82 88
463 1 979 491
464 1 898 582
465 1 439 811
466 1 8 173
467 1 199 182
468 1 239 151
469 1 960 334
470 1 67 99
471 1 49 100
472 1 253 120
473 1 124 84
474 1 64 183
475 1 453 987
476 1 490 869
477 1 153 111
478 1 421 756
479 1 862 440
480 1 170 166
481 1 887 544
482 1 854 544
483 1 58 109
484 1 135 102
485 1 408 787
486 1 44 101
487 1 859 469
488 1 865 487
489 1 845 522
490 1 350 875
491 1 24 154
492 1 945 452
493 1 732 438
494 1 322 797
495 1 569 889
496 1 853 466
497 1 286 3
498 1 19 558
499 1 44 168
500 1 482 967
501 1 271 127
502 1 425 909
503 1 405 777
504 1 921 499
505 1 513 901
506 1 811 488
507 1 541 920
508 1 41 240
509 1 876 405
510 1 449 871
511 1 786 558
512 1 467 684
513 1 75 150
514 1 827 446
515 1 625 441
516 1 122 117
517 1 321 913
518 1 935 443
519 1 378 902
520 1 95 48
521 1 939 576
522 1 991 561
523 1 887 479
524 1 108 102
525 1 822 451
526 1 137 252
527 1 788 543
528 1 556 988
529 1 769 375
530 1 445 848
531 1 446 965
532 1 925 421
533 1 674 544
534 1 117 30
535 1 388 987
536 1 119 18
537 1 439 962
538 1 134 297
539 1 614 521
540 1 887 325
541 1 467 903
542 1 772 461
543 1 423 944
544 1 379 846
545 1 916 509
546 1 983 447
547 1 667 885
548 1 96 150
549 1 465 911
550 1 96 17
551 1 425 963
552 1 93 201
553 1 132 93
554 1 671 926
555 1 901 468
556 1 93 287
557 1 795 581
558 1 741 514
559 1 119 223
560 1 503 964
561 1 849 388
562 1 80 58
563 1 116 81
564 1 123 266
565 1 683 363
566 1 77 114
567 1 872 520
568 1 187 62
569 1 83 158
570 1 918 677
571 1 19 198
572 1 909 427
573 1 937 395
574 1 11 176
575 1 80 88
576 1 72 143
577 1 510 919
578 1 25 87
579 1 421 825
580 1 855 443
581 1 823 522
582 1 468 802
583 1 2 112
584 1 96 91
585 1 647 389
586 1 876 475
587 1 422 970
588 1 705 454
589 1 151 897
590 1 853 420
591 1 883 484
592 1 27 44
593 1 852 479
594 1 154 38
595 1 285 921
596 1 50 196
597 1 956 449
598 1 259 863
599 1 702 637
600 1 422 975
601 1 413 885
602 1 432 847
603 1 112 263
604 1 908 625
605 1 783 344
606 1 422 744
607 1 372 987
608 1 860 387
609 1 168 96
610 1 358 850
611 1 476 813
612 1 62 117
613 1 539 970
614 1 278 215
615 1 854 616
616 1 379 769
617 1 418 899
618 1 128 124
619 1 46 207
620 1 466 816
621 1 890 559
622 1 688 555
623 1 826 582
624 1 127 126
625 1 879 499
626 1 401 805
627 1 384 826
628 1 320 775
629 1 204 336
630 1 866 515
631 1 801 544
632 1 117 139
633 1 852 498
634 1 397 949
635 1 405 865
636 1 724 356
637 1 414 830
638 1 131 31
639 1 318 200
640 1 946 468
641 1 1 157
642 1 542 729
643 1 245 352
644 1 539 905
645 1 827 317
646 1 376 836
647 1 878 519
648 1 212 724
649 1 876 516
650 1 96 124
651 1 939 557
652 1 504 915
653 1 380 841
654 1 149 149
655 1 804 494
656 1 330 999
657 1 104 67
658 1 283 883
659 1 877 601
660 1 866 497
661 1 138 48
662 1 814 455
663 1 970 535
664 1 450 898
665 1 220 93
666 1 208 26
667 1 317 96
668 1 921 488
669 1 903 248
670 1 95 80
671 1 849 498
672 1 816 494
673 1 52 141
674 1 180 59
675 1 69 98
676 1 199 69
677 1 884 460
678 1 879 525
679 1 57 102
680 1 978 705
681 1 929 486
682 1 152 106
683 1 691 634
684 1 456 977
685 1 391 789
686 1 442 872
687 1 754 759
688 1 854 615
689 1 820 450
690 1 326 986
691 1 71 69
692 1 315 718
693 1 377 938
694 1 44 74
695 1 290 921
696 1 899 478
697 1 24 197
698 1 438 957
699 1 142 147
700 1 437 837
701 1 742 549
702 1 288 844
703 1 792 425
704 1 413 913
705 1 447 938
706 1 849 496
707 1 262 65
708 1 840 466
709 1 533 687
710 1 810 536
711 1 213 160
712 1 860 414
713 1 884 459
714 1 4 153
715 1 447 930
716 1 140 44
717 1 521 878
718 1 575 779
719 1 442 900
720 1 877 579
721 1 893 487
722 1 73 13
723 1 394 886
724 1 511 949
725 1 474 772
726 1 812 425
727 1 684 471
728 1 458 971
729 1 132 137
730 1 797 351
731 1 401 904
732 1 132 115
733 1 386 268
734 1 856 456
735 1 953 616
736 1 382 794
737 1 548 895
738 1 861 525
739 1 372 780
740 1 967 425
741 1 534 912
742 1 52 157
743 1 396 888
744 1 82 60
745 1 856 523
746 1 12 90
747 1 8 208
748 1 303 67
749 1 497 721
750 1 454 984
751 1 120 69
752 1 831 458
753 1 786 524
754 1 40 111
755 1 347 868
756 1 377 932
757 1 296 934
758 1 896 547
759 1 884 450
760 1 812 534
761 1 926 500
762 1 380 921
763 1 423 888
764 1 797 512
765 1 848 444
766 1 716 514
767 1 412 903
768 1 871 532
769 1 402 885
770 1 870 564
771 1 826 512
772 1 529 867
773 1 451 999
774 1 852 522
775 1 406 859
776 1 51 110
777 1 919 577
778 1 824 407
779 1 411 883
780 1 794 483
781 1 46 105
782 1 274 236
783 1 430 972
784 1 854 533
785 1 336 959
786 1 813 702
787 1 210 304
788 1 460 867
789 1 315 915
790 1 454 857
791 1 905 380
792 1 831 580
793 1 399 106
794 1 97 106
795 1 805 499
796 1 904 561
797 1 420 930
798 1 876 448
799 1 102 164
800 1 74 112
801 1 139 43
802 1 370 995
803 1 849 441
804 1 405 938
805 1 57 100
806 1 78 81
807 1 170 77
808 1 959 379
809 1 347 913
810 1 845 478
811 1 316 803
812 1 115 74
813 1 538 906
814 1 939 530
815 1 405 891
816 1 235 819
817 1 982 463
818 1 817 482
819 1 463 971
820 1 847 370
821 1 200 145
822 1 769 970
823 1 712 624
824 1 910 566
825 1 867 531
826 1 352 966
827 1 490 865
828 1 451 831
829 1 97 85
830 1 408 920
831 1 869 485
832 1 341 453
833 1 10 127
834 1 1 25
835 1 918 775
836 1 277 884
837 1 847 483
838 1 884 435
839 1 745 448
840 1 118 13
841 1 222 755
842 1 695 341
843 1 25 18
844 1 380 843
845 1 949 466
846 1 436 877
847 1 912 446
848 1 405 857
849 1 824 490
850 1 486 866
851 1 568 430
852 1 935 513
853 1 821 687
854 1 367 814
855 1 33 97
856 1 411 722
DEMAND_SECTION
1 0
2 1
3 1
4 1
5 1
6 1
7 1
8 1
9 1
10 1
11 1
12 1
13 1
14 1
15 1
16 1
17 1
18 1
19 1
20 1
21 1
22 1
23 1
24 1
25 1
26 1
27 1
28 1
29 1
30 1
31 1
32 1
33 1
34 1
35 1
36 1
37 1
38 1
39 1
40 1
41 1
42 1
43 1
44 1
45 1
46 1
47 1
48 1
49 1
50 1
51 1
52 1
53 1
54 1
55 1
56 1
57 1
58 1
59 1
60 1
61 1
62 1
63 1
64 1
65 1
66 1
67 1
68 1
69 1
70 1
71 1
72 1
73 1
74 1
75 1
76 1
77 1
78 1
79 1
80 1
81 1
82 1
83 1
84 1
85 1
86 1
87 1
88 1
89 1
90 1
91 1
92 1
93 1
94 1
95 1
96 1
97 1
98 1
99 1
100 1
101 1
102 1
103 1
104 1
105 1
106 1
107 1
108 1
109 1
110 1
111 1
112 1
113 1
114 1
115 1
116 1
117 1
118 1
119 1
120 1
121 1
122 1
123 1
124 1
125 1
126 1
127 1
128 1
129 1
130 1
131 1
132 1
133 1
134 1
135 1
136 1
137 1
138 1
139 1
140 1
141 1
142 1
143 1
144 1
145 1
146 1
147 1
148 1
149 1
150 1
151 1
152 1
153 1
154 1
155 1
156 1
157 1
158 1
159 1
160 1
161 1
162 1
163 1
164 1
165 1
166 1
167 1
168 1
169 1
170 1
171 1
172 1
173 1
174 1
175 1
176 1
177 1
178 1
179 1
180 1
181 1
182 1
183 1
184 1
185 1
186 1
187 1
188 1
189 1
190 1
191 1
192 1
193 1
194 1
195 1
196 1
197 1
198 1
199 1
200 1
201 1
202 1
203 1
204 1
205 1
206 1
207 1
208 1
209 1
210 1
211 1
212 1
213 1
214 1
215 1
216 1
217 1
218 1
219 1
220 1
221 1
222 1
223 1
224 1
225 1
226 1
227 1
228 1
229 1
230 1
231 1
232 1
233 1
234 1
235 1
236 1
237 1
238 1
239 1
240 1
241 1
242 1
243 1
244 1
245 1
246 1
247 1
248 1
249 1
250 1
251 1
252 1
253 1
254 1
255 1
256 1
257 1
258 1
259 1
260 1
261 1
262 1
263 1
264 1
265 1
266 1
267 1
268 1
269 1
270 1
271 1
272 1
273 1
274 1
275 1
276 1
277 1
278 1
279 1
280 1
281 1
282 1
283 1
284 1
285 1
286 1
287 1
288 1
289 1
290 1
291 1
292 1
293 1
294 1
295 1
296 1
297 1
298 1
299 1
300 1
301 1
302 1
303 1
304 1
305 1
306 1
307 1
308 1
309 1
310 1
311 1
312 1
313 1
314 1
315 1
316 1
317 1
318 1
319 1
320 1
321 1
322 1
323 1
324 1
325 1
326 1
327 1
328 1
329 1
330 1
331 1
332 1
333 1
334 1
335 1
336 1
337 1
338 1
339 1
340 1
341 1
342 1
343 1
344 1
345 1
346 1
347 1
348 1
349 1
350 1
351 1
352 1
353 1
354 1
355 1
356 1
357 1
358 1
359 1
360 1
361 1
362 1
363 1
364 1
365 1
366 1
367 1
368 1
369 1
370 1
371 1
372 1
373 1
374 1
375 1
376 1
377 1
378 1
379 1
380 1
381 1
382 1
383 1
384 1
385 1
386 1
387 1
388 1
389 1
390 1
391 1
392 1
393 1
394 1
395 1
396 1
397 1
398 1
399 1
400 1
401 1
402 1
403 1
404 1
405 1
406 1
407 1
408 1
409 1
410 1
411 1
412 1
413 1
414 1
415 1
416 1
417 1
418 1
419 1
420 1
421 1
422 1
423 1
424 1
425 1
426 1
427 1
428 1
429 1
430 1
431 1
432 1
433 1
434 1
435 1
436 1
437 1
438 1
439 1
440 1
441 1
442 1
443 1
444 1
445 1
446 1
447 1
448 1
449 1
450 1
451 1
452 1
453 1
454 1
455 1
456 1
457 1
458 1
459 1
460 1
461 1
462 1
463 1
464 1
465 1
466 1
467 1
468 1
469 1
470 1
471 1
472 1
473 1
474 1
475 1
476 1
477 1
478 1
479 1
480 1
481 1
482 1
483 1
484 1
485 1
486 1
487 1
488 1
489 1
490 1
491 1
492 1
493 1
494 1
495 1
496 1
497 1
498 1
499 1
500 1
501 1
502 1
503 1
504 1
505 1
506 1
507 1
508 1
509 1
510 1
511 1
512 1
513 1
514 1
515 1
516 1
517 1
518 1
519 1
520 1
521 1
522 1
523 1
524 1
525 1
526 1
527 1
528 1
529 1
530 1
531 1
532 1
533 1
534 1
535 1
536 1
537 1
538 1
539 1
540 1
541 1
542 1
543 1
544 1
545 1
546 1
547 1
548 1
549 1
550 1
551 1
552 1
553 1
554 1
555 1
556 1
557 1
558 1
559 1
560 1
561 1
562 1
563 1
564 1
565 1
566 1
567 1
568 1
569 1
570 1
571 1
572 1
573 1
574 1
575 1
576 1
577 1
578 1
579 1
580 1
581 1
582 1
583 1
584 1
585 1
586 1
587 1
588 1
589 1
590 1
591 1
592 1
593 1
594 1
595 1
596 1
597 1
598 1
599 1
600 1
601 1
602 1
603 1
604 1
605 1
606 1
607 1
608 1
609 1
610 1
611 1
612 1
613 1
614 1
615 1
616 1
617 1
618 1
619 1
620 1
621 1
622 1
623 1
624 1
625 1
626 1
627 1
628 1
629 1
630 1
631 1
632 1
633 1
634 1
635 1
636 1
637 1
638 1
639 1
640 1
641 1
642 1
643 1
644 1
645 1
646 1
647 1
648 1
649 1
650 1
651 1
652 1
653 1
654 1
655 1
656 1
657 1
658 1
659 1
660 1
661 1
662 1
663 1
664 1
665 1
666 1
667 1
668 1
669 1
670 1
671 1
672 1
673 1
674 1
675 1
676 1
677 1
678 1
679 1
680 1
681 1
682 1
683 1
684 1
685 1
686 1
687 1
688 1
689 1
690 1
691 1
692 1
693 1
694 1
695 1
696 1
697 1
698 1
699 1
700 1
701 1
702 1
703 1
704 1
705 1
706 1
707 1
708 1
709 1
710 1
711 1
712 1
713 1
714 1
715 1
716 1
717 1
718 1
719 1
720 1
721 1
722 1
723 1
724 1
725 1
726 1
727 1
728 1
729 1
730 1
731 1
732 1
733 1
734 1
735 1
736 1
737 1
738 1
739 1
740 1
741 1
742 1
743 1
744 1
745 1
746 1
747 1
748 1
749 1
750 1
751 1
752 1
753 1
754 1
755 1
756 1
757 1
758 1
759 1
760 1
761 1
762 1
763 1
764 1
765 1
766 1
767 1
768 1
769 1
770 1
771 1
772 1
773 1
774 1
775 1
776 1
777 1
778 1
779 1
780 1
781 1
782 1
783 1
784 1
785 1
786 1
787 1
788 1
789 1
790 1
791 1
792 1
793 1
794 1
795 1
796 1
797 1
798 1
799 1
800 1
801 1
802 1
803 1
804 1
805 1
806 1
807 1
808 1
809 1
810 1
811 1
812 1
813 1
814 1
815 1
816 1
817 1
818 1
819 1
820 1
821 1
822 1
823 1
824 1
825 1
826 1
827 1
828 1
829 1
830 1
831 1
832 1
833 1
834 1
835 1
836 1
837 1
838 1
839 1
840 1
841 1
842 1
843 1
844 1
845 1
846 1
847 1
848 1
849 1
850 1
851 1
852 1
853 1
854 1
855 1
856 1
DEPOT_SECTION
1
-1
EOF
